(set-logic QF_S)
(declare-fun var0 () String)
(assert (RegexIn var0 (RegexConcat (RegexPlus (RegexPlus (Str2Reg "00"))) (RegexConcat (RegexStar (RegexPlus (Str2Reg "11"))) (RegexConcat (RegexStar (RegexPlus (Str2Reg "222"))) (RegexConcat (RegexStar (RegexStar (Str2Reg "333"))) (RegexConcat (RegexPlus (RegexStar (Str2Reg "4"))) (RegexConcat (RegexUnion (RegexPlus (Str2Reg "555")) (RegexPlus (Str2Reg "6"))) (RegexConcat (RegexPlus (RegexStar (Str2Reg "7"))) (RegexConcat (RegexUnion (RegexUnion (Str2Reg "8") (Str2Reg "99")) (RegexUnion (Str2Reg "a") (Str2Reg "b"))) (RegexConcat (RegexStar (RegexUnion (Str2Reg "cc") (Str2Reg "d"))) (RegexConcat (RegexUnion (RegexUnion (Str2Reg "ee") (Str2Reg "f")) (RegexUnion (Str2Reg "ggg") (Str2Reg "hhh"))) (RegexConcat (RegexPlus (RegexPlus (Str2Reg "iii"))) (RegexConcat (RegexPlus (RegexUnion (Str2Reg "jjj") (Str2Reg "k"))) (RegexConcat (RegexPlus (RegexStar (Str2Reg "ll"))) (RegexConcat (RegexPlus (RegexUnion (Str2Reg "mmm") (Str2Reg "nnn"))) (RegexConcat (RegexPlus (RegexPlus (Str2Reg "ooo"))) (RegexConcat (RegexUnion (RegexPlus (Str2Reg "ppp")) (RegexPlus (Str2Reg "qq"))) (RegexConcat (RegexUnion (RegexStar (Str2Reg "rrr")) (RegexStar (Str2Reg "s"))) (RegexConcat (RegexUnion (RegexPlus (Str2Reg "t")) (RegexPlus (Str2Reg "uuu"))) (RegexConcat (RegexStar (RegexStar (Str2Reg "vv"))) (RegexConcat (RegexUnion (RegexStar (Str2Reg "ww")) (RegexStar (Str2Reg "xxx"))) (RegexConcat (RegexPlus (RegexPlus (Str2Reg "yy"))) (RegexConcat (RegexUnion (RegexPlus (Str2Reg "z")) (RegexPlus (Str2Reg "AA"))) (RegexConcat (RegexStar (RegexStar (Str2Reg "BBB"))) (RegexConcat (RegexUnion (RegexStar (Str2Reg "CCC")) (RegexStar (Str2Reg "D"))) (RegexConcat (RegexStar (RegexUnion (Str2Reg "E") (Str2Reg "FFF"))) (RegexConcat (RegexUnion (RegexPlus (Str2Reg "GG")) (RegexPlus (Str2Reg "HHH"))) (RegexConcat (RegexStar (RegexUnion (Str2Reg "III") (Str2Reg "J"))) (RegexConcat (RegexUnion (RegexUnion (Str2Reg "KKK") (Str2Reg "LL")) (RegexUnion (Str2Reg "M") (Str2Reg "NNN"))) (RegexConcat (RegexPlus (RegexPlus (Str2Reg "OO"))) (RegexConcat (RegexPlus (RegexStar (Str2Reg "P"))) (RegexConcat (RegexStar (RegexPlus (Str2Reg "QQQ"))) (RegexConcat (RegexStar (RegexUnion (Str2Reg "R") (Str2Reg "SS"))) (RegexConcat (RegexStar (RegexStar (Str2Reg "TTT"))) (RegexConcat (RegexPlus (RegexPlus (Str2Reg "UUU"))) (RegexConcat (RegexStar (RegexUnion (Str2Reg "VV") (Str2Reg "WWW"))) (RegexConcat (RegexUnion (RegexPlus (Str2Reg "XXX")) (RegexPlus (Str2Reg "Y"))) (RegexConcat (RegexUnion (RegexStar (Str2Reg "ZZZ")) (RegexStar (Str2Reg "!"))) (RegexConcat (RegexUnion (RegexUnion (Str2Reg "\"\"") (Str2Reg "##")) (RegexUnion (Str2Reg "$$") (Str2Reg "%"))) (RegexConcat (RegexPlus (RegexPlus (Str2Reg "&&"))) (RegexConcat (RegexStar (RegexUnion (Str2Reg "'''") (Str2Reg "(("))) (RegexConcat (RegexStar (RegexPlus (Str2Reg ")"))) (RegexConcat (RegexUnion (RegexStar (Str2Reg "***")) (RegexStar (Str2Reg "+++"))) (RegexConcat (RegexStar (RegexStar (Str2Reg ",,"))) (RegexConcat (RegexUnion (RegexStar (Str2Reg "--")) (RegexStar (Str2Reg ".."))) (RegexConcat (RegexPlus (RegexStar (Str2Reg "//"))) (RegexConcat (RegexUnion (RegexStar (Str2Reg "::")) (RegexStar (Str2Reg ";;;"))) (RegexConcat (RegexStar (RegexUnion (Str2Reg "<<<") (Str2Reg "==="))) (RegexConcat (RegexStar (RegexUnion (Str2Reg ">>>") (Str2Reg "??"))) (RegexConcat (RegexStar (RegexPlus (Str2Reg "@@@"))) (RegexConcat (RegexUnion (RegexUnion (Str2Reg "[[") (Str2Reg "\\\\\\")) (RegexUnion (Str2Reg "]]") (Str2Reg "^^"))) (RegexConcat (RegexStar (RegexPlus (Str2Reg "___"))) (RegexConcat (RegexUnion (RegexUnion (Str2Reg "```") (Str2Reg "{{")) (RegexUnion (Str2Reg "|||") (Str2Reg "}}"))) (RegexPlus (RegexUnion (Str2Reg "~~") (Str2Reg "00")))))))))))))))))))))))))))))))))))))))))))))))))))))))))
(check-sat)